JOBS = 1..7;
MACHINES = 1..4;
SPEED = 1;
time = array3d(JOBS,MACHINES,1..SPEED,[18,74,45,23,84,88,13,23,19,79,73,74,64,20,74,60,31,29,90,77,17,75,65,39,16,21,28,15]);
energy = array3d(JOBS,MACHINES,1..SPEED,[83,47,63,79,43,41,87,79,82,45,48,47,52,81,47,54,73,74,40,46,84,47,52,67,85,81,75,86]);
precedence = array2d(JOBS,MACHINES,[3,1,2,0,1,0,2,3,0,3,1,2,2,0,1,3,3,1,0,2,3,2,1,0,3,0,1,2]);
ME = 1;
TE = 109;
st_old = array2d(JOBS,MACHINES,[387,129,341,106,88,0,386,399,0,237,90,163,275,88,191,339,340,203,0,252,405,330,265,0,371,108,163,237]);
SpeedScaling = array2d(JOBS,MACHINES,[1,1,1,1,1,1,1,1,1,1,1,1,1,1,1,1,1,1,1,1,1,1,1,1,1,1,1,1]);
